
Gurobi 6.5.2 (linux64) logging started Mon Aug 29 10:58:08 2016

Optimize a model with 201 rows, 3565 columns and 7199 nonzeros
Coefficient statistics:
  Matrix range    [1e+00, 2e+00]
  Objective range [1e+00, 1e+02]
  Bounds range    [1e+00, 1e+00]
  RHS range       [1e+00, 1e+00]
Found heuristic solution: objective 5092
Presolve removed 75 rows and 50 columns
Presolve time: 0.01s
Presolved: 126 rows, 3515 columns, 7048 nonzeros
Variable types: 0 continuous, 3515 integer (3515 binary)

Root relaxation: objective 9.505000e+02, 172 iterations, 0.00 seconds

    Nodes    |    Current Node    |     Objective Bounds      |     Work
 Expl Unexpl |  Obj  Depth IntInf | Incumbent    BestBd   Gap | It/Node Time

     0     0  950.50000    0   22 5092.00000  950.50000  81.3%     -    0s
H    0     0                    1022.0000000  950.50000  7.00%     -    0s
H    0     0                     955.0000000  950.50000  0.47%     -    0s
     0     0  952.00000    0    8  955.00000  952.00000  0.31%     -    0s
     0     0  952.00000    0    6  955.00000  952.00000  0.31%     -    0s
     0     0     cutoff    0       955.00000  954.00096  0.10%     -    0s

Cutting planes:
  Gomory: 2
  Zero half: 1

Explored 0 nodes (274 simplex iterations) in 0.07 seconds
Thread count was 8 (of 8 available processors)

Optimal solution found (tolerance 1.00e-04)
Best objective 9.550000000000e+02, best bound 9.550000000000e+02, gap 0.0%
